(set-info :origin "Horn problem converted to SMT-LIB2 using Eldarica (https://github.com/uuverifiers/eldarica)")
(set-logic HORN)
(declare-fun INV_REC_g^g (Int Int Int Int Int Int Int Int Int Int Int Int) Bool)
(declare-fun INV_REC_g^g_PRE (Int Int Int Int Int Int) Bool)
(declare-fun INV_REC_g__1_PRE (Int Int Int) Bool)
(declare-fun INV_REC_g__1 (Int Int Int Int Int Int) Bool)
(declare-fun INV_REC_g__2 (Int Int Int Int Int Int) Bool)
(declare-fun INV_REC_g__2_PRE (Int Int Int) Bool)
(assert (forall ((A Int) (B Int) (C Int) (D Int) (E Int) (F Int) (G Int) (H Int) (I Int) (J Int) (K Int) (L Int) (M Int) (N Int) (O Int) (P Int) (Q Int) (R Int) (S Int) (T Int) (U Int) (V Int) (W Int) (X Int) (Y Int) (Z Int) (A1 Int) (B1 Int) (C1 Int) (D1 Int) (E1 Int) (F1 Int) (G1 Int) (H1 Int) (I1 Int) (J1 Int) (K1 Int) (L1 Int) (M1 Int) (N1 Int) (O1 Int) (P1 Int) (Q1 Int) (R1 Int) (S1 Int) (T1 Int) (U1 Int) (V1 Int) (W1 Int) (X1 Int) (Y1 Int) (Z1 Int) (A2 Int) (B2 Int) (C2 Int) (D2 Int) (E2 Int) (F2 Int) (G2 Int) (H2 Int) (I2 Int) (J2 Int) (K2 Int) (L2 Int) (M2 Int) (N2 Int) (O2 Int) (P2 Int) (Q2 Int) (R2 Int) (S2 Int) (T2 Int) (U2 Int) (V2 Int) (W2 Int) (X2 Int) (Y2 Int) (Z2 Int) (A3 Int) (B3 Int) (C3 Int) (D3 Int) (E3 Int) (F3 Int) (G3 Int) (H3 Int) (I3 Int) (J3 Int) (K3 Int) (L3 Int) (M3 Int) (N3 Int) (O3 Int) (P3 Int) (Q3 Int) (R3 Int) (S3 Int) (T3 Int) (U3 Int) (V3 Int) (W3 Int) (X3 Int) (Y3 Int) (Z3 Int) (A4 Int) (B4 Int) (C4 Int) (D4 Int) (E4 Int) (F4 Int) (G4 Int) (H4 Int) (I4 Int) (J4 Int) (K4 Int) (L4 Int) (M4 Int) (N4 Int) (O4 Int) (P4 Int) (Q4 Int) (R4 Int) (S4 Int) (T4 Int) (U4 Int) (V4 Int) (W4 Int) (X4 Int) (Y4 Int) (Z4 Int) (A5 Int) (B5 Int) (C5 Int) (D5 Int) (E5 Int) (F5 Int) (G5 Int) (H5 Int) (I5 Int) (J5 Int) (K5 Int) (L5 Int) (M5 Int) (N5 Int) (O5 Int) (P5 Int) (Q5 Int) (R5 Int) (S5 Int) (T5 Int) (U5 Int) (V5 Int) (W5 Int) (X5 Int) (Y5 Int) (Z5 Int) (A6 Int) (B6 Int) (C6 Int) (D6 Int) (E6 Int) (F6 Int) (G6 Int) (H6 Int) (I6 Int) (J6 Int) (K6 Int) (L6 Int) (M6 Int) (N6 Int) (O6 Int) (P6 Int) (Q6 Int) (R6 Int) (S6 Int) (T6 Int) (U6 Int) (V6 Int) (W6 Int) (X6 Int) (Y6 Int) (Z6 Int) (A7 Int) (B7 Int) (C7 Int) (D7 Int) (E7 Int) (F7 Int) (G7 Int) (H7 Int) (I7 Int) (J7 Int) (K7 Int) (L7 Int) (M7 Int) (N7 Int) (O7 Int) (P7 Int) (Q7 Int) (R7 Int) (S7 Int) (T7 Int) (U7 Int) (V7 Int)) (not (and (and (and (and (and (and (and (and (and (and (and (and (and (and (and (and (and (and (and (and (and (and (and (and (and (and (and (and (and (and (and (and (and (and (and (and (and (and (and (and (and (and (and (and (and (and (and (and (and (and (and (and (and (and (and (and (and (and (and (and (and (and (and (and (and (and (and (and (and (and (and (and (and (and (and (and (and (and (and (and (and (and (and (and (and (and (and (and (and (and (and (and (and (and (and (and (and (and (and (and (and (and (and (and (and (and (and (and (and (and (and (and (and (and (and (and (and (and (and (and (and (and (and (and (and (and (and (and (and (and (and (and (and (and (and (and (and (and (and (and (and (and (and (and (and (and (and (and (and (and (and (and (and (and (and (and (and (and (and (and (and (and (and (and (and (and (and (and (and (and (and (and (and (and (and (and (and (and (and (and (and (and (and (and (and (and (and (and (and (and (and (and (and (and (and (and (and (and (and (and (and (and (and (and (and (and (and (and (and (and (INV_REC_g^g A B C D E F G H I J K L) (INV_REC_g^g M N O P Q R S T U V W X)) (INV_REC_g^g Y Z A1 B1 C1 D1 E1 F1 G1 H1 I1 J1)) (INV_REC_g^g K1 L1 M1 N1 O1 P1 Q1 R1 S1 T1 U1 V1)) (INV_REC_g^g W1 X1 Y1 Z1 A2 B2 C2 D2 E2 F2 G2 H2)) (INV_REC_g^g I2 J2 K2 L2 M2 N2 O2 P2 Q2 R2 S2 T2)) (INV_REC_g^g U2 V2 W2 X2 Y2 Z2 A3 B3 C3 D3 E3 F3)) (INV_REC_g^g G3 H3 I3 J3 K3 L3 M3 N3 O3 P3 Q3 R3)) (INV_REC_g^g S3 T3 U3 V3 W3 X3 Y3 Z3 A4 B4 C4 D4)) (INV_REC_g^g E4 F4 G4 H4 I4 J4 K4 L4 M4 N4 O4 P4)) (INV_REC_g^g Q4 R4 S4 T4 U4 V4 W4 X4 Y4 Z4 A5 B5)) (INV_REC_g^g C5 D5 E5 F5 G5 H5 I5 J5 K5 L5 M5 N5)) (INV_REC_g^g O5 P5 Q5 R5 S5 T5 U5 V5 W5 X5 Y5 Z5)) (INV_REC_g^g A6 B6 C6 D6 E6 F6 G6 H6 I6 J6 K6 L6)) (INV_REC_g^g M6 N6 O6 P6 Q6 R6 S6 T6 U6 V6 W6 X6)) (INV_REC_g^g Y6 Z6 A7 B7 C7 D7 E7 F7 G7 H7 I7 J7)) (INV_REC_g^g K7 L7 M7 N7 O7 P7 Q7 R7 S7 T7 U7 V7)) (not (and (= S7 K7) (not (= V6 T7))))) (not (and (= U7 K7) (not (= J7 V7))))) (not (and (= S5 L7) (not (= T5 M7))))) (not (= V6 J7))) (= N7 K7)) (= O7 L7)) (= P7 M7)) (= Y6 K7)) (= Z6 L7)) (= A7 M7)) (= B7 K7)) (= C7 L7)) (= D7 M7)) (= E7 Q7)) (= F7 R7)) (= G7 S7)) (= H7 T7)) (= I7 K7)) (= M6 K7)) (= N6 L7)) (= O6 M7)) (= P6 K7)) (= Q6 L7)) (= R6 M7)) (= S6 Q7)) (= T6 R7)) (= U6 K7)) (= W6 U7)) (= X6 V7)) (= A6 K7)) (= B6 L7)) (= C6 M7)) (= D6 K7)) (= E6 L7)) (= F6 M7)) (= G6 Q7)) (= H6 R7)) (= I6 K7)) (= J6 V6)) (= K6 K7)) (= L6 J7)) (= O5 K7)) (= P5 L7)) (= Q5 M7)) (= R5 K7)) (= U5 Q7)) (= V5 R7)) (= W5 S7)) (= X5 T7)) (= Y5 U7)) (= Z5 V7)) (= C5 K7)) (= D5 L7)) (= E5 M7)) (= F5 K7)) (= G5 S5)) (= H5 T5)) (= I5 Q7)) (= J5 R7)) (= K5 S7)) (= L5 T7)) (= M5 K7)) (= N5 J7)) (= Q4 K7)) (= R4 L7)) (= S4 M7)) (= T4 K7)) (= U4 S5)) (= V4 T5)) (= W4 Q7)) (= X4 R7)) (= Y4 K7)) (= Z4 V6)) (= A5 U7)) (= B5 V7)) (= E4 K7)) (= F4 L7)) (= G4 M7)) (= H4 K7)) (= I4 S5)) (= J4 T5)) (= K4 Q7)) (= L4 R7)) (= M4 K7)) (= N4 V6)) (= O4 K7)) (= P4 J7)) (= S3 K7)) (= T3 S5)) (= U3 T5)) (= W3 L7)) (= X3 M7)) (= Y3 Q7)) (= Z3 R7)) (= A4 S7)) (= B4 T7)) (= C4 U7)) (= D4 V7)) (= G3 K7)) (= H3 S5)) (= I3 T5)) (= J3 K7)) (= K3 L7)) (= L3 M7)) (= M3 Q7)) (= N3 R7)) (= O3 S7)) (= P3 T7)) (= Q3 U7)) (= R3 V7)) (= U2 K7)) (= V2 S5)) (= W2 T5)) (= X2 K7)) (= Y2 L7)) (= Z2 M7)) (= A3 Q7)) (= B3 R7)) (= C3 S7)) (= D3 T7)) (= E3 K7)) (= F3 J7)) (= I2 K7)) (= J2 S5)) (= K2 T5)) (= L2 K7)) (= M2 L7)) (= N2 M7)) (= O2 Q7)) (= P2 R7)) (= Q2 K7)) (= R2 V6)) (= S2 U7)) (= T2 V7)) (= W1 K7)) (= X1 S5)) (= Y1 T5)) (= Z1 K7)) (= A2 L7)) (= B2 M7)) (= C2 Q7)) (= D2 R7)) (= E2 K7)) (= F2 V6)) (= G2 K7)) (= H2 J7)) (= K1 K7)) (= L1 S5)) (= M1 T5)) (= N1 K7)) (= O1 S5)) (= P1 T5)) (= Q1 Q7)) (= R1 R7)) (= S1 S7)) (= T1 T7)) (= U1 U7)) (= V1 V7)) (= Y K7)) (= Z S5)) (= A1 T5)) (= B1 K7)) (= C1 S5)) (= D1 T5)) (= E1 Q7)) (= F1 R7)) (= G1 S7)) (= H1 T7)) (= I1 K7)) (= J1 J7)) (= M K7)) (= N S5)) (= O T5)) (= P K7)) (= Q S5)) (= R T5)) (= S Q7)) (= T R7)) (= U K7)) (= V V6)) (= W U7)) (= X V7)) (= A K7)) (= B S5)) (= C T5)) (= D K7)) (= E S5)) (= F T5)) (= G Q7)) (= H R7)) (= I K7)) (= J V6)) (= K K7)) (= L J7)))))
(assert (forall ((A Int) (B Int) (C Int) (D Int) (E Int) (F Int) (G Int) (H Int) (I Int) (J Int) (K Int) (L Int) (M Int) (N Int) (O Int) (P Int) (Q Int) (R Int) (S Int) (T Int) (U Int) (V Int) (W Int) (X Int) (Y Int) (Z Int) (A1 Int) (B1 Int) (C1 Int) (D1 Int) (E1 Int) (F1 Int) (G1 Int) (H1 Int) (I1 Int) (J1 Int) (K1 Int) (L1 Int) (M1 Int) (N1 Int) (O1 Int) (P1 Int) (Q1 Int) (R1 Int) (S1 Int) (T1 Int) (U1 Int) (V1 Int) (W1 Int) (X1 Int) (Y1 Int) (Z1 Int) (A2 Int) (B2 Int) (C2 Int) (D2 Int) (E2 Int) (F2 Int) (G2 Int) (H2 Int) (I2 Int) (J2 Int) (K2 Int) (L2 Int) (M2 Int) (N2 Int) (O2 Int) (P2 Int) (Q2 Int) (R2 Int) (S2 Int) (T2 Int) (U2 Int) (V2 Int) (W2 Int) (X2 Int) (Y2 Int) (Z2 Int) (A3 Int) (B3 Int) (C3 Int) (D3 Int) (E3 Int) (F3 Int) (G3 Int) (H3 Int) (I3 Int) (J3 Int) (K3 Int) (L3 Int) (M3 Int) (N3 Int) (O3 Int) (P3 Int) (Q3 Int) (R3 Int) (S3 Int) (T3 Int) (U3 Int) (V3 Int) (W3 Int) (X3 Int) (Y3 Int) (Z3 Int) (A4 Int) (B4 Int) (C4 Int) (D4 Int) (E4 Int) (F4 Int) (G4 Int) (H4 Int) (I4 Int) (J4 Int) (K4 Int) (L4 Int) (M4 Int) (N4 Int) (O4 Int) (P4 Int) (Q4 Int) (R4 Int) (S4 Int) (T4 Int) (U4 Int) (V4 Int) (W4 Int) (X4 Int) (Y4 Int) (Z4 Int) (A5 Int) (B5 Int) (C5 Int) (D5 Int) (E5 Int) (F5 Int) (G5 Int) (H5 Int) (I5 Int) (J5 Int) (K5 Int) (L5 Int) (M5 Int) (N5 Int) (O5 Int) (P5 Int) (Q5 Int) (R5 Int) (S5 Int) (T5 Int) (U5 Int) (V5 Int) (W5 Int) (X5 Int) (Y5 Int) (Z5 Int) (A6 Int) (B6 Int) (C6 Int) (D6 Int) (E6 Int) (F6 Int) (G6 Int) (H6 Int) (I6 Int) (J6 Int) (K6 Int) (L6 Int) (M6 Int) (N6 Int) (O6 Int) (P6 Int) (Q6 Int) (R6 Int) (S6 Int) (T6 Int) (U6 Int) (V6 Int) (W6 Int) (X6 Int) (Y6 Int) (Z6 Int) (A7 Int) (B7 Int) (C7 Int) (D7 Int) (E7 Int) (F7 Int) (G7 Int) (H7 Int) (I7 Int) (J7 Int) (K7 Int) (L7 Int) (M7 Int) (N7 Int) (O7 Int) (P7 Int) (Q7 Int) (R7 Int) (S7 Int) (T7 Int) (U7 Int) (V7 Int)) (not (and (and (and (and (and (and (and (and (and (and (and (and (and (and (and (and (and (and (and (and (and (and (and (and (and (and (and (and (and (and (and (and (and (and (and (and (and (and (and (and (and (and (and (and (and (and (and (and (and (and (and (and (and (and (and (and (and (and (and (and (and (and (and (and (and (and (and (and (and (and (and (and (and (and (and (and (and (and (and (and (and (and (and (and (and (and (and (and (and (and (and (and (and (and (and (and (and (and (and (and (and (and (and (and (and (and (and (and (and (and (and (and (and (and (and (and (and (and (and (and (and (and (and (and (and (and (and (and (and (and (and (and (and (and (and (and (and (and (and (and (and (and (and (and (and (and (and (and (and (and (and (and (and (and (and (and (and (and (and (and (and (and (and (and (and (and (and (and (and (and (and (and (and (and (and (and (and (and (and (and (and (and (and (and (and (and (and (and (and (and (and (and (and (and (and (and (and (and (and (and (and (and (and (and (and (and (and (and (and (INV_REC_g^g A B C D E F G H I J K L) (INV_REC_g^g M N O P Q R S T U V W X)) (INV_REC_g^g Y Z A1 B1 C1 D1 E1 F1 G1 H1 I1 J1)) (INV_REC_g^g K1 L1 M1 N1 O1 P1 Q1 R1 S1 T1 U1 V1)) (INV_REC_g^g W1 X1 Y1 Z1 A2 B2 C2 D2 E2 F2 G2 H2)) (INV_REC_g^g I2 J2 K2 L2 M2 N2 O2 P2 Q2 R2 S2 T2)) (INV_REC_g^g U2 V2 W2 X2 Y2 Z2 A3 B3 C3 D3 E3 F3)) (INV_REC_g^g G3 H3 I3 J3 K3 L3 M3 N3 O3 P3 Q3 R3)) (INV_REC_g^g S3 T3 U3 V3 W3 X3 Y3 Z3 A4 B4 C4 D4)) (INV_REC_g^g E4 F4 G4 H4 I4 J4 K4 L4 M4 N4 O4 P4)) (INV_REC_g^g Q4 R4 S4 T4 U4 V4 W4 X4 Y4 Z4 A5 B5)) (INV_REC_g^g C5 D5 E5 F5 G5 H5 I5 J5 K5 L5 M5 N5)) (INV_REC_g^g O5 P5 Q5 R5 S5 T5 U5 V5 W5 X5 Y5 Z5)) (INV_REC_g^g A6 B6 C6 D6 E6 F6 G6 H6 I6 J6 K6 L6)) (INV_REC_g^g M6 N6 O6 P6 Q6 R6 S6 T6 U6 V6 W6 X6)) (INV_REC_g^g Y6 Z6 A7 B7 C7 D7 E7 F7 G7 H7 I7 J7)) (INV_REC_g^g K7 L7 M7 N7 O7 P7 Q7 R7 S7 T7 U7 V7)) (not (and (= I7 S7) (not (= V6 T7))))) (not (and (= I7 U7) (not (= J7 V7))))) (not (and (= S5 L7) (not (= T5 M7))))) (not (= V6 J7))) (= N7 K7)) (= O7 L7)) (= P7 M7)) (= Y6 K7)) (= Z6 L7)) (= A7 M7)) (= B7 K7)) (= C7 L7)) (= D7 M7)) (= E7 Q7)) (= F7 R7)) (= G7 S7)) (= H7 T7)) (= M6 K7)) (= N6 L7)) (= O6 M7)) (= P6 K7)) (= Q6 L7)) (= R6 M7)) (= S6 Q7)) (= T6 R7)) (= U6 I7)) (= W6 U7)) (= X6 V7)) (= A6 K7)) (= B6 L7)) (= C6 M7)) (= D6 K7)) (= E6 L7)) (= F6 M7)) (= G6 Q7)) (= H6 R7)) (= I6 I7)) (= J6 V6)) (= K6 I7)) (= L6 J7)) (= O5 K7)) (= P5 L7)) (= Q5 M7)) (= R5 K7)) (= U5 Q7)) (= V5 R7)) (= W5 S7)) (= X5 T7)) (= Y5 U7)) (= Z5 V7)) (= C5 K7)) (= D5 L7)) (= E5 M7)) (= F5 K7)) (= G5 S5)) (= H5 T5)) (= I5 Q7)) (= J5 R7)) (= K5 S7)) (= L5 T7)) (= M5 I7)) (= N5 J7)) (= Q4 K7)) (= R4 L7)) (= S4 M7)) (= T4 K7)) (= U4 S5)) (= V4 T5)) (= W4 Q7)) (= X4 R7)) (= Y4 I7)) (= Z4 V6)) (= A5 U7)) (= B5 V7)) (= E4 K7)) (= F4 L7)) (= G4 M7)) (= H4 K7)) (= I4 S5)) (= J4 T5)) (= K4 Q7)) (= L4 R7)) (= M4 I7)) (= N4 V6)) (= O4 I7)) (= P4 J7)) (= S3 K7)) (= T3 S5)) (= U3 T5)) (= W3 L7)) (= X3 M7)) (= Y3 Q7)) (= Z3 R7)) (= A4 S7)) (= B4 T7)) (= C4 U7)) (= D4 V7)) (= G3 K7)) (= H3 S5)) (= I3 T5)) (= J3 K7)) (= K3 L7)) (= L3 M7)) (= M3 Q7)) (= N3 R7)) (= O3 S7)) (= P3 T7)) (= Q3 U7)) (= R3 V7)) (= U2 K7)) (= V2 S5)) (= W2 T5)) (= X2 K7)) (= Y2 L7)) (= Z2 M7)) (= A3 Q7)) (= B3 R7)) (= C3 S7)) (= D3 T7)) (= E3 I7)) (= F3 J7)) (= I2 K7)) (= J2 S5)) (= K2 T5)) (= L2 K7)) (= M2 L7)) (= N2 M7)) (= O2 Q7)) (= P2 R7)) (= Q2 I7)) (= R2 V6)) (= S2 U7)) (= T2 V7)) (= W1 K7)) (= X1 S5)) (= Y1 T5)) (= Z1 K7)) (= A2 L7)) (= B2 M7)) (= C2 Q7)) (= D2 R7)) (= E2 I7)) (= F2 V6)) (= G2 I7)) (= H2 J7)) (= K1 K7)) (= L1 S5)) (= M1 T5)) (= N1 K7)) (= O1 S5)) (= P1 T5)) (= Q1 Q7)) (= R1 R7)) (= S1 S7)) (= T1 T7)) (= U1 U7)) (= V1 V7)) (= Y K7)) (= Z S5)) (= A1 T5)) (= B1 K7)) (= C1 S5)) (= D1 T5)) (= E1 Q7)) (= F1 R7)) (= G1 S7)) (= H1 T7)) (= I1 I7)) (= J1 J7)) (= M K7)) (= N S5)) (= O T5)) (= P K7)) (= Q S5)) (= R T5)) (= S Q7)) (= T R7)) (= U I7)) (= V V6)) (= W U7)) (= X V7)) (= A K7)) (= B S5)) (= C T5)) (= D K7)) (= E S5)) (= F T5)) (= G Q7)) (= H R7)) (= I I7)) (= J V6)) (= K I7)) (= L J7)))))
(assert (forall ((A Int) (B Int) (C Int) (D Int) (E Int) (F Int))(=> (and (not (and (= E B) (not (= F C)))) (= D A)) (INV_REC_g^g_PRE A B C D E F))))
(assert (forall ((A Int) (B Int) (C Int) (D Int) (E Int) (F Int) (G Int) (H Int) (I Int) (J Int) (K Int) (L Int) (M Int) (N Int) (O Int) (P Int) (Q Int) (R Int) (S Int) (T Int) (U Int) (V Int) (W Int) (X Int))(=> (and (and (and (and (and (and (and (and (and (and (and (and (and (and (and (and (and (and (and (and (INV_REC_g^g_PRE M N O P Q R) (INV_REC_g^g_PRE S T U V W X)) (not (and (= C 1) (= B A)))) (not (and (= K D) (not (= L 1))))) (not (and (= K E) (not (= L F))))) (= G 0)) (= H 0)) (= I A)) (= J 1)) (= S A)) (= T B)) (= U C)) (= V D)) (= W K)) (= X L)) (= M A)) (= N B)) (= O C)) (= P D)) (= Q E)) (= R F)) (INV_REC_g^g A B C D E F G H I J K L))))
(assert (forall ((A Int) (B Int) (C Int) (D Int) (E Int) (F Int) (G Int) (H Int) (I Int) (J Int) (K Int) (L Int) (M Int) (N Int) (O Int) (P Int) (Q Int) (R Int) (S Int) (T Int) (U Int) (V Int) (W Int) (X Int) (Y Int) (Z Int) (A1 Int) (B1 Int) (C1 Int) (D1 Int) (E1 Int) (F1 Int) (G1 Int) (H1 Int) (I1 Int) (J1 Int))(=> (and (and (and (and (and (and (and (and (and (and (and (and (and (and (and (and (and (and (and (and (and (and (and (and (and (and (and (and (and (and (and (and (and (INV_REC_g^g_PRE M N O P Q R) (INV_REC_g^g_PRE S T U V W X)) (INV_REC_g^g_PRE Y Z A1 B1 C1 D1)) (INV_REC_g^g_PRE E1 F1 G1 H1 I1 J1)) (not (and (= I A) (not (= J 1))))) (not (and (= I B) (not (= J C))))) (not (and (= K D) (not (= L 1))))) (not (and (= K E) (not (= L F))))) (= G 0)) (= H 0)) (= E1 A)) (= F1 I)) (= G1 J)) (= H1 D)) (= I1 K)) (= J1 L)) (= Y A)) (= Z I)) (= A1 J)) (= B1 D)) (= C1 E)) (= D1 F)) (= S A)) (= T B)) (= U C)) (= V D)) (= W K)) (= X L)) (= M A)) (= N B)) (= O C)) (= P D)) (= Q E)) (= R F)) (INV_REC_g^g A B C D E F G H I J K L))))
(assert (forall ((A Int) (B Int) (C Int) (D Int) (E Int) (F Int) (G Int) (H Int) (I Int) (J Int) (K Int) (L Int) (M Int) (N Int) (O Int) (P Int) (Q Int) (R Int))(=> (and (and (and (and (and (and (and (and (and (and (and (and (and (and (INV_REC_g^g_PRE M N O P Q R) (not (and (= C 1) (= B A)))) (not (and (= F 1) (= E D)))) (= G 0)) (= H 0)) (= I A)) (= J 1)) (= K D)) (= L 1)) (= M A)) (= N B)) (= O C)) (= P D)) (= Q E)) (= R F)) (INV_REC_g^g A B C D E F G H I J K L))))
(assert (forall ((A Int) (B Int) (C Int) (D Int) (E Int) (F Int) (G Int) (H Int) (I Int) (J Int) (K Int) (L Int) (M Int) (N Int) (O Int) (P Int) (Q Int) (R Int) (S Int) (T Int) (U Int) (V Int) (W Int) (X Int))(=> (and (and (and (and (and (and (and (and (and (and (and (and (and (and (and (and (and (and (and (and (INV_REC_g^g_PRE M N O P Q R) (INV_REC_g^g_PRE S T U V W X)) (not (and (= F 1) (= E D)))) (not (and (= I A) (not (= J 1))))) (not (and (= I B) (not (= J C))))) (= G 0)) (= H 0)) (= K D)) (= L 1)) (= S A)) (= T I)) (= U J)) (= V D)) (= W E)) (= X F)) (= M A)) (= N B)) (= O C)) (= P D)) (= Q E)) (= R F)) (INV_REC_g^g A B C D E F G H I J K L))))
(assert (forall ((A Int) (B Int) (C Int) (D Int) (E Int) (F Int) (G Int) (H Int) (I Int) (J Int) (K Int) (L Int))(=> (and (and (and (and (and (and (and (and (and (and (INV_REC_g__1_PRE G H I) (INV_REC_g__1_PRE J K L)) (not (and (= E A) (not (= F 1))))) (not (and (= E B) (not (= F C))))) (= D 0)) (= J A)) (= K E)) (= L F)) (= G A)) (= H B)) (= I C)) (INV_REC_g__1 A B C D E F))))
(assert (forall ((A Int) (B Int) (C Int) (D Int) (E Int) (F Int) (G Int) (H Int) (I Int))(=> (and (and (and (and (and (and (and (INV_REC_g__1_PRE G H I) (not (and (= C 1) (= B A)))) (= D 0)) (= E A)) (= F 1)) (= G A)) (= H B)) (= I C)) (INV_REC_g__1 A B C D E F))))
(assert (forall ((A Int) (B Int) (C Int) (D Int) (E Int) (F Int) (G Int) (H Int) (I Int) (J Int) (K Int) (L Int))(=> (and (and (and (and (and (and (and (and (and (and (INV_REC_g__2_PRE G H I) (INV_REC_g__2_PRE J K L)) (not (and (= E A) (not (= F 1))))) (not (and (= E B) (not (= F C))))) (= D 0)) (= J A)) (= K E)) (= L F)) (= G A)) (= H B)) (= I C)) (INV_REC_g__2 A B C D E F))))
(assert (forall ((A Int) (B Int) (C Int) (D Int) (E Int) (F Int) (G Int) (H Int) (I Int))(=> (and (and (and (and (and (and (and (INV_REC_g__2_PRE G H I) (not (and (= C 1) (= B A)))) (= D 0)) (= E A)) (= F 1)) (= G A)) (= H B)) (= I C)) (INV_REC_g__2 A B C D E F))))
(check-sat)
